webassembly/ejemplos_dzn/4/folder4_json_33.dzn
TERM = { '.', 's(2)', 'in_1', 's(1)', 's(0)', 'in_0'};
null = '.';
s = 4;
n = 8;
ndeps = 2;
max_registers_sz = 3;
NR = 0;
registers = [| |];
dependencies = [|'i32.load8_s_0', 'i32.store16_2', |'i32.store16_2', 'i32.load8_u_3'|];
GET_ENUM = { GET1, GET2, GET3};
SET_ENUM = { SET1, SET2, SET3};
TEE_ENUM = { TEE1, TEE2, TEE3};
N = 4;
OP = { 'i32.load8_s_0', 'i32.const_0', 'i32.store16_2', 'i32.load8_u_3' };
in_ops = [1, 0, 2, 1 ];
out_ops = [1, 1, 0, 1 ];
in1 = ['in_0', '.', 's(2)', 'in_1' ];
in2 = ['.', '.', 's(0)', '.' ];
in3 = ['.', '.', '.', '.' ];
out1 = ['s(0)', 's(2)', '.', 's(1)' ];
out2 = ['.', '.', '.', '.' ];
out3 = ['.', '.', '.', '.' ];
comm = [false, false, false, false ];
gas = [1, 1, 1, 1 ];
sz = [1, 1, 1, 1 ];
stor = [false, false, true, false ];
lb = [ 1, 1, 1, 1 ];
ub = [ 4, 4, 4, 4 ];
startstack = [ 'in_0', 'in_1', null, null, null, null, null, null ];
endstack = [ 's(1)', null, null, null, null, null, null, null ];
